3891389759764078931507,6,1,2,08,7,1,2,014,13,1,2,07,13,1,2,014,8,1,2,010,3,1,2,010,3,1,2,011,13,1,2,02,14,1,2,013,4,1,2,07,4,1,2,011,14,1,2,02,2,1,2,07,7,1,2,04,4,1,2,04,4,1,2,09,14,1,2,04,5,1,2,07,13,1,2,01,9,1,2,09,14,1,2,09,7,1,2,015,2,1,2,011,13,1,2,02,12,1,2,04,7,1,2,012,13,1,2,013,10,1,2,013,12,1,2,011,13,1,2,04,10,1,2,03,15,1,2,013,1,1,2,012,10,1,2,02,10,1,2,013,8,1,2,01,13,1,2,02,4,1,2,010,7,1,2,015,2,1,2,012,1,1,2,011,14,1,2,013,6,1,2,09,7,1,2,02,3,1,2,03,9,1,2,04,5,1,2,06,13,1,2,04,11,1,2,012,6,1,2,0